# Random Circle Problem
param d := 0.05; 
param n := 10; 
param radius := 2.00; 
param v0 := 
1 5.87
2 5.30
3 5.59
4 5.78
5 5.02
6 5.07
7 4.91
8 5.19
9 5.59
10 5.70
;
param cap := 
1 3.30730
2 3.56055
3 4.35560
4 5.15385
5 5.92517
6 0.24658
7 0.78893
8 1.06902
9 2.35141
10 2.77680
;
param x0 := 
1 2.00
2 1.62
3 0.62
4 -0.62
5 -1.62
6 -2.00
7 -1.62
8 -0.62
9 0.62
10 1.62
;
param y0 := 
1 -0.00
2 1.18
3 1.90
4 1.90
5 1.18
6 0.00
7 -1.18
8 -1.90
9 -1.90
10 -1.18
;
